nTasks=4;
nThreads=9;
nCPUs=3;
nCores=9;
rh=[771.530345915 775.537381479 334.364090659 388.47542902 443.281356181 565.296559805 285.519096585 940.648825754 807.483878442];
rc=[599.159878916 594.506372072 571.195519909];
CK=[
	[1 1 1 1 0 0 0 0 0]
	[0 0 0 0 1 1 0 0 0]
	[0 0 0 0 0 0 1 1 1]
];
TH=[
	[1 1 1 1 0 0 0 0 0]
	[0 0 0 0 1 0 0 0 0]
	[0 0 0 0 0 1 1 0 0]
	[0 0 0 0 0 0 0 1 1]
];
